
Gurobi 5.6.0 (win64) logging started 02/22/14 19:14:13


Gurobi 5.6.0 (win64) logging started 02/22/14 19:14:53


Gurobi 5.6.0 (win64) logging started 02/22/14 19:15:18


Gurobi 5.6.0 (win64) logging started 02/22/14 19:16:11


Gurobi 5.6.0 (win64) logging started 02/22/14 19:17:49


Gurobi 5.6.0 (win64) logging started 02/22/14 19:18:34


Gurobi 5.6.0 (win64) logging started 02/22/14 19:19:11


Gurobi 5.6.0 (win64) logging started 02/22/14 19:19:40


Gurobi 5.6.0 (win64) logging started 02/22/14 19:19:56


Gurobi 5.6.0 (win64) logging started 02/22/14 19:20:24


Gurobi 5.6.0 (win64) logging started 02/22/14 19:22:08


Gurobi 5.6.0 (win64) logging started 02/22/14 19:23:47


Gurobi 5.6.0 (win64) logging started 02/22/14 19:56:31

